
Log started (V22.1.1.0) Fri Dec 13 01:04:08 2024


Problem 'lps/d500_01.lp' read.
Read time = 0.02 sec. (0.50 ticks)
Version identifier: 22.1.1.0 | 2022-11-27 | 9160aff4d
Tried aggregator 4 times.
MIP Presolve eliminated 1505 rows and 1088 columns.
Aggregator did 39 substitutions.
Reduced MIP has 3890 rows, 1367 columns, and 11944 nonzeros.
Reduced MIP has 1367 binaries, 0 generals, 0 SOSs, and 0 indicators.
Presolve time = 0.02 sec. (11.71 ticks)
Found incumbent of value 231.000000 after 0.02 sec. (13.60 ticks)
Probing time = 0.00 sec. (0.45 ticks)
Tried aggregator 1 time.
MIP Presolve eliminated 1930 rows and 817 columns.
Reduced MIP has 1960 rows, 550 columns, and 5990 nonzeros.
Reduced MIP has 550 binaries, 0 generals, 0 SOSs, and 0 indicators.
Presolve time = 0.00 sec. (3.79 ticks)
Probing time = 0.00 sec. (0.63 ticks)
Tried aggregator 1 time.
MIP Presolve eliminated 1772 rows and 490 columns.
Reduced MIP has 188 rows, 60 columns, and 576 nonzeros.
Reduced MIP has 60 binaries, 0 generals, 0 SOSs, and 0 indicators.
Presolve time = 0.00 sec. (1.01 ticks)
Probing time = 0.00 sec. (0.06 ticks)
Tried aggregator 1 time.
Detecting symmetries...
Reduced MIP has 188 rows, 60 columns, and 576 nonzeros.
Reduced MIP has 60 binaries, 0 generals, 0 SOSs, and 0 indicators.
Presolve time = 0.00 sec. (0.36 ticks)
Probing time = 0.00 sec. (0.06 ticks)
Clique table members: 12.
MIP emphasis: balance optimality and feasibility.
MIP search method: dynamic search.
Parallel mode: deterministic, using up to 12 threads.
Root relaxation solution time = 0.00 sec. (0.19 ticks)

        Nodes                                         Cuts/
   Node  Left     Objective  IInf  Best Integer    Best Bound    ItCnt     Gap

*     0+    0                          492.0000      500.0000             1.63%
      0     0      500.0000     6      492.0000      500.0000        9    1.63%
*     0+    0                          497.0000      500.0000             0.60%
*     0     0      integral     0      500.0000       Cuts: 3       10    0.00%
      0     0        cutoff            500.0000      500.0000       10    0.00%
Elapsed time = 0.31 sec. (145.46 ticks, tree = 0.01 MB, solutions = 12)

Zero-half cuts applied:  1
Lift and project cuts applied:  1
Gomory fractional cuts applied:  1

Root node processing (before b&c):
  Real time             =    0.31 sec. (145.71 ticks)
Parallel b&c, 12 threads:
  Real time             =    0.00 sec. (0.00 ticks)
  Sync time (average)   =    0.00 sec.
  Wait time (average)   =    0.00 sec.
                          ------------
Total (root+branch&cut) =    0.31 sec. (145.71 ticks)

Solution pool: 12 solutions saved.

MIP - Integer optimal solution:  Objective =  5.0000000000e+02
Solution time =    0.31 sec.  Iterations = 10  Nodes = 0
Deterministic time = 145.72 ticks  (465.54 ticks/sec)


Log started (V22.1.1.0) Fri Dec 13 01:33:07 2024

